30301.41,43.11,47.47
25437.78,51.35,56.55
29783.97,43.86,48.3
29900.4,43.68,48.11
32090.88,40.7,44.82
30563.01,42.74,47.07
29070.35,44.93,49.48
28493.31,45.84,50.48
30810.83,42.39,46.69
28286.03,46.18,50.85
36034.27,36.25,39.92
27352.45,47.75,52.59
29764.1,43.88,48.33
31472.46,41.5,45.71
30837.41,42.36,46.65
29739.44,43.92,48.37
32186.89,40.58,44.69
29940.56,43.63,48.04
30120.44,43.37,47.76
29433.3,44.38,48.87
